\ Equation counts
\     Total        E        G        L        N        X        C        B
\	171	171	0	0
\
\ Variable counts
\                  x        b        i      s1s      s2s       sc       si
\     Total     cont   binary  integer     sos1     sos2    scont     sint
\	40	40

\ Nonzero counts
\     Total    const       NL      DLL
\
\
Minimize
 obj: [ + 16.5 x_1 * x_2 - 4.5 x_1 * x_4 + 3.0 x_1 * x_6 - 8.0 x_1 * x_11 - 21.5 x_1 * x_13 + 18.0 x_1 * x_14 + 10.5 x_1 * x_15 - 5.5 x_1 * x_16 + 21.5 x_1 * x_20 + 17.0 x_1 * x_25 - 1.5 x_1 * x_28 + 24.0 x_1 * x_30 - 21.5 x_1 * x_31 + 21.5 x_1 * x_39 + 16.5 x_2 * x_1 + 17.5 x_2 * x_4 + 10.0 x_2 * x_6 + 13.0 x_2 * x_14 + 23.5 x_2 * x_15 + 7.5 x_2 * x_18 + 8.5 x_2 * x_23 - 5.5 x_2 * x_25 + 10.5 x_2 * x_32 - 20.5 x_2 * x_34 + 20.5 x_2 * x_40 - 6.5 x_3 * x_4 + 13.0 x_3 * x_9 - 1.5 x_3 * x_10 - 14.5 x_3 * x_11 + 4.0 x_3 * x_13 - 22.0 x_3 * x_20 - 21.0 x_3 * x_26 + 16.0 x_3 * x_30 - 24.0 x_3 * x_32 + 12.0 x_3 * x_33 + 22.5 x_3 * x_34 + 21.0 x_3 * x_39 - 22.5 x_3 * x_40 - 4.5 x_4 * x_1 + 17.5 x_4 * x_2 - 6.5 x_4 * x_3 + 19.5 x_4 * x_4 + 18.5 x_4 * x_10 + 4.0 x_4 * x_13 + 24.5 x_4 * x_15 - 14.5 x_4 * x_16 + 14.0 x_4 * x_17 - 14.5 x_4 * x_19 + 12.5 x_4 * x_24 - 22.0 x_4 * x_25 + 22.5 x_4 * x_30 + 17.0 x_4 * x_32 + 17.5 x_4 * x_35 + 14.5 x_4 * x_38 + 14.5 x_4 * x_39 + 20.0 x_5 * x_5 + 16.5 x_5 * x_8 + 6.5 x_5 * x_10 + 20.0 x_5 * x_14 + 23.0 x_5 * x_23 + 17.0 x_5 * x_26 - 22.5 x_5 * x_27 - 21.5 x_5 * x_36 + 4.0 x_5 * x_37 + 15.5 x_5 * x_38 + 3.0 x_6 * x_1 + 10.0 x_6 * x_2 + 9.0 x_6 * x_6 - 7.5 x_6 * x_7 - 4.0 x_6 * x_8 + 1.0 x_6 * x_9 - 17.0 x_6 * x_12 + 20.5 x_6 * x_14 + 3.5 x_6 * x_27 - 19.0 x_6 * x_28 + 0.5 x_6 * x_32 - 7.0 x_6 * x_33 + 9.5 x_6 * x_34 + 24.5 x_6 * x_36 + 15.5 x_6 * x_38 - 7.5 x_7 * x_6 + 20.5 x_7 * x_9 + 13.0 x_7 * x_12 - 9.0 x_7 * x_14 + 24.5 x_7 * x_18 + 13.0 x_7 * x_21 + 23.0 x_7 * x_25 - 1.0 x_7 * x_35 + 14.5 x_7 * x_37 + 16.5 x_8 * x_5 - 4.0 x_8 * x_6 + 21.5 x_8 * x_19 - 17.5 x_8 * x_24 - 18.5 x_8 * x_32 - 4.5 x_8 * x_37 - 23.5 x_8 * x_38 + 23.5 x_8 * x_39 + 13.0 x_9 * x_3 + 1.0 x_9 * x_6 + 20.5 x_9 * x_7 + 17.0 x_9 * x_10 + 23.0 x_9 * x_15 + 9.0 x_9 * x_19 + 4.5 x_9 * x_21 + 5.0 x_9 * x_34 + 8.5 x_9 * x_39 - 1.5 x_10 * x_3 + 18.5 x_10 * x_4 + 6.5 x_10 * x_5 + 17.0 x_10 * x_9 + 20.5 x_10 * x_12 - 8.0 x_10 * x_13 - 13.0 x_10 * x_24 + 2.5 x_10 * x_28 - 2.5 x_10 * x_29 - 23.0 x_10 * x_39 - 8.0 x_11 * x_1 - 14.5 x_11 * x_3 + 22.5 x_11 * x_17 + 18.5 x_11 * x_22 - 7.0 x_11 * x_23 + 9.0 x_11 * x_31 - 10.0 x_11 * x_32 + 1.0 x_11 * x_34 + 23.5 x_11 * x_39 - 17.0 x_12 * x_6 + 13.0 x_12 * x_7 + 20.5 x_12 * x_10 - 13.5 x_12 * x_12 + 16.0 x_12 * x_18 + 13.0 x_12 * x_19 + 24.0 x_12 * x_26 + 17.0 x_12 * x_28 + 17.5 x_12 * x_30 - 21.5 x_12 * x_34 + 6.5 x_12 * x_39 - 21.5 x_13 * x_1 + 4.0 x_13 * x_3 + 4.0 x_13 * x_4 - 8.0 x_13 * x_10 - 6.5 x_13 * x_14 + 3.0 x_13 * x_16 + 6.5 x_13 * x_23 - 10.5 x_13 * x_24 - 14.0 x_13 * x_26 - 9.0 x_13 * x_27 - 4.5 x_13 * x_34 + 18.0 x_14 * x_1 + 13.0 x_14 * x_2 + 20.0 x_14 * x_5 + 20.5 x_14 * x_6 - 9.0 x_14 * x_7 - 6.5 x_14 * x_13 + 10.5 x_14 * x_18 - 11.5 x_14 * x_20 + 4.5 x_14 * x_21 - 19.5 x_14 * x_24 + 18.5 x_14 * x_25 + 4.0 x_14 * x_28 + 22.5 x_14 * x_36 + 6.0 x_14 * x_39 + 10.5 x_15 * x_1 + 23.5 x_15 * x_2 + 24.5 x_15 * x_4 + 23.0 x_15 * x_9 - 17.0 x_15 * x_18 + 15.5 x_15 * x_19 - 2.5 x_15 * x_22 - 5.5 x_15 * x_24 + 9.0 x_15 * x_30 + 13.5 x_15 * x_35 - 5.5 x_15 * x_38 - 13.5 x_15 * x_40 - 5.5 x_16 * x_1 - 14.5 x_16 * x_4 + 3.0 x_16 * x_13 - 19.0 x_16 * x_22 + 18.5 x_16 * x_26 + 17.5 x_16 * x_28 - 4.0 x_16 * x_31 + 0.5 x_16 * x_32 + 24.5 x_16 * x_38 + 14.0 x_17 * x_4 + 22.5 x_17 * x_11 + 7.5 x_17 * x_24 - 3.0 x_17 * x_27 + 8.5 x_17 * x_29 - 19.5 x_17 * x_31 + 10.0 x_17 * x_32 - 1.5 x_17 * x_34 + 24.5 x_17 * x_36 + 21.5 x_17 * x_39 + 7.5 x_18 * x_2 + 24.5 x_18 * x_7 + 16.0 x_18 * x_12 + 10.5 x_18 * x_14 - 17.0 x_18 * x_15 - 18.5 x_18 * x_18 - 24.0 x_18 * x_19 + 8.0 x_18 * x_25 - 6.5 x_18 * x_36 + 8.0 x_18 * x_39 - 14.5 x_19 * x_4 + 21.5 x_19 * x_8 + 9.0 x_19 * x_9 + 13.0 x_19 * x_12 + 15.5 x_19 * x_15 - 24.0 x_19 * x_18 - 1.0 x_19 * x_24 - 8.0 x_19 * x_33 + 3.0 x_19 * x_39 + 21.5 x_20 * x_1 - 22.0 x_20 * x_3 - 11.5 x_20 * x_14 + 13.5 x_20 * x_29 - 1.0 x_20 * x_31 - 23.0 x_20 * x_35 + 6.0 x_20 * x_39 + 13.0 x_21 * x_7 + 4.5 x_21 * x_9 + 4.5 x_21 * x_14 - 20.0 x_21 * x_21 - 6.0 x_21 * x_23 + 8.0 x_21 * x_24 + 4.0 x_21 * x_25 + 5.0 x_21 * x_26 - 9.5 x_21 * x_38 - 8.0 x_21 * x_39 + 18.5 x_22 * x_11 - 2.5 x_22 * x_15 - 19.0 x_22 * x_16 - 7.0 x_22 * x_25 - 6.5 x_22 * x_26 + 1.0 x_22 * x_27 - 5.5 x_22 * x_28 + 5.0 x_22 * x_29 + 12.0 x_22 * x_31 + 5.0 x_22 * x_32 + 4.0 x_22 * x_33 + 8.0 x_22 * x_34 - 4.0 x_22 * x_39 + 8.5 x_23 * x_2 + 23.0 x_23 * x_5 - 7.0 x_23 * x_11 + 6.5 x_23 * x_13 - 6.0 x_23 * x_21 - 15.5 x_23 * x_23 - 19.5 x_23 * x_24 - 2.0 x_23 * x_26 - 22.5 x_23 * x_27 - 15.0 x_23 * x_36 + 12.5 x_24 * x_4 - 17.5 x_24 * x_8 - 13.0 x_24 * x_10 - 10.5 x_24 * x_13 - 19.5 x_24 * x_14 - 5.5 x_24 * x_15 + 7.5 x_24 * x_17 - 1.0 x_24 * x_19 + 8.0 x_24 * x_21 - 19.5 x_24 * x_23 - 21.0 x_24 * x_24 + 12.5 x_24 * x_26 + 24.0 x_24 * x_28 + 4.0 x_24 * x_29 - 18.5 x_24 * x_35 + 21.5 x_24 * x_36 - 4.0 x_24 * x_38 + 17.0 x_25 * x_1 - 5.5 x_25 * x_2 - 22.0 x_25 * x_4 + 23.0 x_25 * x_7 + 18.5 x_25 * x_14 + 8.0 x_25 * x_18 + 4.0 x_25 * x_21 - 7.0 x_25 * x_22 - 13.0 x_25 * x_25 - 17.0 x_25 * x_26 + 8.0 x_25 * x_40 - 21.0 x_26 * x_3 + 17.0 x_26 * x_5 + 24.0 x_26 * x_12 - 14.0 x_26 * x_13 + 18.5 x_26 * x_16 + 5.0 x_26 * x_21 - 6.5 x_26 * x_22 - 2.0 x_26 * x_23 + 12.5 x_26 * x_24 - 17.0 x_26 * x_25 + 20.0 x_26 * x_28 + 21.0 x_26 * x_33 + 8.5 x_26 * x_39 - 22.5 x_27 * x_5 + 3.5 x_27 * x_6 - 9.0 x_27 * x_13 - 3.0 x_27 * x_17 + 1.0 x_27 * x_22 - 22.5 x_27 * x_23 - 12.0 x_27 * x_29 + 15.5 x_27 * x_31 - 12.0 x_27 * x_32 - 12.5 x_27 * x_34 + 18.0 x_27 * x_36 + 23.5 x_27 * x_37 - 23.5 x_27 * x_39 - 1.5 x_28 * x_1 - 19.0 x_28 * x_6 + 2.5 x_28 * x_10 + 17.0 x_28 * x_12 + 4.0 x_28 * x_14 + 17.5 x_28 * x_16 - 5.5 x_28 * x_22 + 24.0 x_28 * x_24 + 20.0 x_28 * x_26 - 2.5 x_29 * x_10 + 8.5 x_29 * x_17 + 13.5 x_29 * x_20 + 5.0 x_29 * x_22 + 4.0 x_29 * x_24 - 12.0 x_29 * x_27 - 13.0 x_29 * x_29 - 3.0 x_29 * x_30 + 8.0 x_29 * x_32 + 15.5 x_29 * x_35 + 13.0 x_29 * x_39 + 24.0 x_30 * x_1 + 16.0 x_30 * x_3 + 22.5 x_30 * x_4 + 17.5 x_30 * x_12 + 9.0 x_30 * x_15 - 3.0 x_30 * x_29 - 7.5 x_30 * x_30 + 5.0 x_30 * x_31 + 14.5 x_30 * x_37 + 18.0 x_30 * x_38 + 16.0 x_30 * x_39 + 19.5 x_30 * x_40 - 21.5 x_31 * x_1 + 9.0 x_31 * x_11 - 4.0 x_31 * x_16 - 19.5 x_31 * x_17 - 1.0 x_31 * x_20 + 12.0 x_31 * x_22 + 15.5 x_31 * x_27 + 5.0 x_31 * x_30 + 10.0 x_31 * x_33 + 13.0 x_31 * x_36 + 10.5 x_32 * x_2 - 24.0 x_32 * x_3 + 17.0 x_32 * x_4 + 0.5 x_32 * x_6 - 18.5 x_32 * x_8 - 10.0 x_32 * x_11 + 0.5 x_32 * x_16 + 10.0 x_32 * x_17 + 5.0 x_32 * x_22 - 12.0 x_32 * x_27 + 8.0 x_32 * x_29 + 1.5 x_32 * x_32 - 4.5 x_32 * x_34 + 11.0 x_32 * x_37 - 18.0 x_32 * x_38 + 12.0 x_33 * x_3 - 7.0 x_33 * x_6 - 8.0 x_33 * x_19 + 4.0 x_33 * x_22 + 21.0 x_33 * x_26 + 10.0 x_33 * x_31 + 22.0 x_33 * x_33 - 3.0 x_33 * x_37 + 5.0 x_33 * x_39 - 20.5 x_34 * x_2 + 22.5 x_34 * x_3 + 9.5 x_34 * x_6 + 5.0 x_34 * x_9 + 1.0 x_34 * x_11 - 21.5 x_34 * x_12 - 4.5 x_34 * x_13 - 1.5 x_34 * x_17 + 8.0 x_34 * x_22 - 12.5 x_34 * x_27 - 4.5 x_34 * x_32 + 12.0 x_34 * x_34 + 17.5 x_34 * x_39 - 17.5 x_34 * x_40 + 17.5 x_35 * x_4 - 1.0 x_35 * x_7 + 13.5 x_35 * x_15 - 23.0 x_35 * x_20 - 18.5 x_35 * x_24 + 15.5 x_35 * x_29 + 10.5 x_35 * x_38 + 17.5 x_35 * x_40 - 21.5 x_36 * x_5 + 24.5 x_36 * x_6 + 22.5 x_36 * x_14 + 24.5 x_36 * x_17 - 6.5 x_36 * x_18 - 15.0 x_36 * x_23 + 21.5 x_36 * x_24 + 18.0 x_36 * x_27 + 13.0 x_36 * x_31 + 4.0 x_37 * x_5 + 14.5 x_37 * x_7 - 4.5 x_37 * x_8 + 23.5 x_37 * x_27 + 14.5 x_37 * x_30 + 11.0 x_37 * x_32 - 3.0 x_37 * x_33 + 14.5 x_38 * x_4 + 15.5 x_38 * x_5 + 15.5 x_38 * x_6 - 23.5 x_38 * x_8 - 5.5 x_38 * x_15 + 24.5 x_38 * x_16 - 9.5 x_38 * x_21 - 4.0 x_38 * x_24 + 18.0 x_38 * x_30 - 18.0 x_38 * x_32 + 10.5 x_38 * x_35 - 10.0 x_38 * x_38 + 21.5 x_39 * x_1 + 21.0 x_39 * x_3 + 14.5 x_39 * x_4 + 23.5 x_39 * x_8 + 8.5 x_39 * x_9 - 23.0 x_39 * x_10 + 23.5 x_39 * x_11 + 6.5 x_39 * x_12 + 6.0 x_39 * x_14 + 21.5 x_39 * x_17 + 8.0 x_39 * x_18 + 3.0 x_39 * x_19 + 6.0 x_39 * x_20 - 8.0 x_39 * x_21 - 4.0 x_39 * x_22 + 8.5 x_39 * x_26 - 23.5 x_39 * x_27 + 13.0 x_39 * x_29 + 16.0 x_39 * x_30 + 5.0 x_39 * x_33 + 17.5 x_39 * x_34 + 20.5 x_40 * x_2 - 22.5 x_40 * x_3 - 13.5 x_40 * x_15 + 8.0 x_40 * x_25 + 19.5 x_40 * x_30 - 17.5 x_40 * x_34 + 17.5 x_40 * x_35 - 16.0 x_40 * x_40 ] + 0.0 x_1 + 15.0 x_2 + 0.0 x_3 - 19.0 x_4 + 0.0 x_5 + 17.0 x_6 - 25.0 x_7 + 0.0 x_8 + 0.0 x_9 + 0.0 x_10 + 0.0 x_11 + 0.0 x_12 + 0.0 x_13 + 11.0 x_14 + 0.0 x_15 + 0.0 x_16 + 0.0 x_17 + 0.0 x_18 + 0.0 x_19 + 0.0 x_20 + 0.0 x_21 + 0.0 x_22 + 0.0 x_23 + 0.0 x_24 + 0.0 x_25 + 0.0 x_26 + 0.0 x_27 + 0.0 x_28 - 28.0 x_29 + 0.0 x_30 + 0.0 x_31 + 6.0 x_32 + 0.0 x_33 + 0.0 x_34 + 0.0 x_35 + 0.0 x_36 + 0.0 x_37 - 3.0 x_38 - 22.0 x_39 + 0.0 x_40

Subject To
 e2: [  x_1 * x_2 ] = 0.0
 e3: [  x_1 * x_13 ] = 0.0
 e4: [  x_1 * x_14 ] = 0.0
 e5: [  x_1 * x_15 ] = 0.0
 e6: [  x_1 * x_16 ] = 0.0
 e7: [  x_1 * x_20 ] = 0.0
 e8: [  x_1 * x_28 ] = 0.0
 e9: [  x_1 * x_30 ] = 0.0
 e10: [  x_2 * x_1 ] = 0.0
 e11: [  x_2 * x_4 ] = 0.0
 e12: [  x_2 * x_25 ] = 0.0
 e13: [  x_3 * x_4 ] = 0.0
 e14: [  x_3 * x_13 ] = 0.0
 e15: [  x_3 * x_40 ] = 0.0
 e16: [  x_4 * x_3 ] = 0.0
 e17: [  x_4 * x_13 ] = 0.0
 e18: [  x_4 * x_16 ] = 0.0
 e19: [  x_4 * x_24 ] = 0.0
 e20: [  x_4 * x_35 ] = 0.0
 e21: [  x_4 * x_39 ] = 0.0
 e22: [  x_5 * x_14 ] = 0.0
 e23: [  x_5 * x_23 ] = 0.0
 e24: [  x_5 * x_26 ] = 0.0
 e25: [  x_5 * x_37 ] = 0.0
 e26: [  x_6 * x_9 ] = 0.0
 e27: [  x_6 * x_27 ] = 0.0
 e28: [  x_6 * x_28 ] = 0.0
 e29: [  x_6 * x_38 ] = 0.0
 e30: [  x_7 * x_9 ] = 0.0
 e31: [  x_7 * x_12 ] = 0.0
 e32: [  x_7 * x_21 ] = 0.0
 e33: [  x_7 * x_25 ] = 0.0
 e34: [  x_7 * x_35 ] = 0.0
 e35: [  x_8 * x_6 ] = 0.0
 e36: [  x_8 * x_32 ] = 0.0
 e37: [  x_8 * x_37 ] = 0.0
 e38: [  x_8 * x_38 ] = 0.0
 e39: [  x_9 * x_10 ] = 0.0
 e40: [  x_9 * x_15 ] = 0.0
 e41: [  x_9 * x_21 ] = 0.0
 e42: [  x_10 * x_3 ] = 0.0
 e43: [  x_10 * x_13 ] = 0.0
 e44: [  x_10 * x_29 ] = 0.0
 e45: [  x_11 * x_3 ] = 0.0
 e46: [  x_11 * x_17 ] = 0.0
 e47: [  x_11 * x_32 ] = 0.0
 e48: [  x_12 * x_6 ] = 0.0
 e49: [  x_12 * x_18 ] = 0.0
 e50: [  x_12 * x_19 ] = 0.0
 e51: [  x_13 * x_1 ] = 0.0
 e52: [  x_13 * x_4 ] = 0.0
 e53: [  x_13 * x_16 ] = 0.0
 e54: [  x_13 * x_23 ] = 0.0
 e55: [  x_13 * x_26 ] = 0.0
 e56: [  x_13 * x_27 ] = 0.0
 e57: [  x_13 * x_34 ] = 0.0
 e58: [  x_14 * x_7 ] = 0.0
 e59: [  x_14 * x_21 ] = 0.0
 e60: [  x_14 * x_24 ] = 0.0
 e61: [  x_14 * x_39 ] = 0.0
 e62: [  x_15 * x_1 ] = 0.0
 e63: [  x_15 * x_9 ] = 0.0
 e64: [  x_15 * x_18 ] = 0.0
 e65: [  x_15 * x_24 ] = 0.0
 e66: [  x_15 * x_30 ] = 0.0
 e67: [  x_16 * x_22 ] = 0.0
 e68: [  x_16 * x_31 ] = 0.0
 e69: [  x_17 * x_4 ] = 0.0
 e70: [  x_17 * x_27 ] = 0.0
 e71: [  x_18 * x_7 ] = 0.0
 e72: [  x_18 * x_18 ] = 0.0
 e73: [  x_18 * x_36 ] = 0.0
 e74: [  x_19 * x_15 ] = 0.0
 e75: [  x_19 * x_33 ] = 0.0
 e76: [  x_20 * x_3 ] = 0.0
 e77: [  x_21 * x_14 ] = 0.0
 e78: [  x_21 * x_21 ] = 0.0
 e79: [  x_21 * x_25 ] = 0.0
 e80: [  x_21 * x_26 ] = 0.0
 e81: [  x_21 * x_38 ] = 0.0
 e82: [  x_21 * x_39 ] = 0.0
 e83: [  x_22 * x_16 ] = 0.0
 e84: [  x_22 * x_27 ] = 0.0
 e85: [  x_22 * x_29 ] = 0.0
 e86: [  x_22 * x_31 ] = 0.0
 e87: [  x_22 * x_32 ] = 0.0
 e88: [  x_22 * x_33 ] = 0.0
 e89: [  x_22 * x_34 ] = 0.0
 e90: [  x_22 * x_39 ] = 0.0
 e91: [  x_23 * x_11 ] = 0.0
 e92: [  x_23 * x_23 ] = 0.0
 e93: [  x_23 * x_26 ] = 0.0
 e94: [  x_23 * x_27 ] = 0.0
 e95: [  x_24 * x_4 ] = 0.0
 e96: [  x_24 * x_10 ] = 0.0
 e97: [  x_24 * x_13 ] = 0.0
 e98: [  x_24 * x_15 ] = 0.0
 e99: [  x_24 * x_26 ] = 0.0
 e100: [  x_24 * x_28 ] = 0.0
 e101: [  x_24 * x_35 ] = 0.0
 e102: [  x_24 * x_38 ] = 0.0
 e103: [  x_25 * x_2 ] = 0.0
 e104: [  x_25 * x_4 ] = 0.0
 e105: [  x_25 * x_7 ] = 0.0
 e106: [  x_26 * x_5 ] = 0.0
 e107: [  x_26 * x_16 ] = 0.0
 e108: [  x_26 * x_21 ] = 0.0
 e109: [  x_26 * x_23 ] = 0.0
 e110: [  x_26 * x_24 ] = 0.0
 e111: [  x_26 * x_28 ] = 0.0
 e112: [  x_26 * x_39 ] = 0.0
 e113: [  x_27 * x_5 ] = 0.0
 e114: [  x_27 * x_13 ] = 0.0
 e115: [  x_27 * x_23 ] = 0.0
 e116: [  x_27 * x_32 ] = 0.0
 e117: [  x_27 * x_36 ] = 0.0
 e118: [  x_27 * x_37 ] = 0.0
 e119: [  x_27 * x_39 ] = 0.0
 e120: [  x_28 * x_1 ] = 0.0
 e121: [  x_28 * x_6 ] = 0.0
 e122: [  x_28 * x_22 ] = 0.0
 e123: [  x_28 * x_24 ] = 0.0
 e124: [  x_29 * x_10 ] = 0.0
 e125: [  x_29 * x_20 ] = 0.0
 e126: [  x_29 * x_22 ] = 0.0
 e127: [  x_29 * x_29 ] = 0.0
 e128: [  x_30 * x_1 ] = 0.0
 e129: [  x_30 * x_15 ] = 0.0
 e130: [  x_30 * x_29 ] = 0.0
 e131: [  x_30 * x_30 ] = 0.0
 e132: [  x_30 * x_31 ] = 0.0
 e133: [  x_30 * x_37 ] = 0.0
 e134: [  x_30 * x_38 ] = 0.0
 e135: [  x_30 * x_40 ] = 0.0
 e136: [  x_31 * x_16 ] = 0.0
 e137: [  x_31 * x_17 ] = 0.0
 e138: [  x_31 * x_22 ] = 0.0
 e139: [  x_32 * x_4 ] = 0.0
 e140: [  x_32 * x_11 ] = 0.0
 e141: [  x_32 * x_17 ] = 0.0
 e142: [  x_32 * x_27 ] = 0.0
 e143: [  x_32 * x_29 ] = 0.0
 e144: [  x_32 * x_32 ] = 0.0
 e145: [  x_32 * x_38 ] = 0.0
 e146: [  x_33 * x_33 ] = 0.0
 e147: [  x_33 * x_37 ] = 0.0
 e148: [  x_34 * x_2 ] = 0.0
 e149: [  x_34 * x_6 ] = 0.0
 e150: [  x_34 * x_27 ] = 0.0
 e151: [  x_34 * x_34 ] = 0.0
 e152: [  x_35 * x_15 ] = 0.0
 e153: [  x_35 * x_20 ] = 0.0
 e154: [  x_35 * x_24 ] = 0.0
 e155: [  x_35 * x_29 ] = 0.0
 e156: [  x_36 * x_6 ] = 0.0
 e157: [  x_36 * x_18 ] = 0.0
 e158: [  x_36 * x_23 ] = 0.0
 e159: [  x_36 * x_24 ] = 0.0
 e160: [  x_37 * x_7 ] = 0.0
 e161: [  x_38 * x_4 ] = 0.0
 e162: [  x_38 * x_8 ] = 0.0
 e163: [  x_38 * x_30 ] = 0.0
 e164: [  x_38 * x_32 ] = 0.0
 e165: [  x_39 * x_8 ] = 0.0
 e166: [  x_39 * x_9 ] = 0.0
 e167: [  x_39 * x_10 ] = 0.0
 e168: [  x_39 * x_21 ] = 0.0
 e169: [  x_39 * x_27 ] = 0.0
 e170: [  x_39 * x_34 ] = 0.0
 e171: [  x_40 * x_3 ] = 0.0
 e172: [  x_40 * x_25 ] = 0.0

Bounds
 x_1 <= 1.0
 x_2 <= 1.0
 x_3 <= 1.0
 x_4 <= 1.0
 x_5 <= 1.0
 x_6 <= 1.0
 x_7 <= 1.0
 x_8 <= 1.0
 x_9 <= 1.0
 x_10 <= 1.0
 x_11 <= 1.0
 x_12 <= 1.0
 x_13 <= 1.0
 x_14 <= 1.0
 x_15 <= 1.0
 x_16 <= 1.0
 x_17 <= 1.0
 x_18 <= 1.0
 x_19 <= 1.0
 x_20 <= 1.0
 x_21 <= 1.0
 x_22 <= 1.0
 x_23 <= 1.0
 x_24 <= 1.0
 x_25 <= 1.0
 x_26 <= 1.0
 x_27 <= 1.0
 x_28 <= 1.0
 x_29 <= 1.0
 x_30 <= 1.0
 x_31 <= 1.0
 x_32 <= 1.0
 x_33 <= 1.0
 x_34 <= 1.0
 x_35 <= 1.0
 x_36 <= 1.0
 x_37 <= 1.0
 x_38 <= 1.0
 x_39 <= 1.0
 x_40 <= 1.0

End